
******************************************************************************
This program contains Ipopt, a library for large-scale nonlinear optimization.
 Ipopt is released as open source code under the Eclipse Public License (EPL).
         For more information visit http://projects.coin-or.org/Ipopt
******************************************************************************

This is Ipopt version 3.13.2, running with linear solver mumps.
NOTE: Other linear solvers might be more efficient (see Ipopt documentation).

Number of nonzeros in equality constraint Jacobian...:       49
Number of nonzeros in inequality constraint Jacobian.:       36
Number of nonzeros in Lagrangian Hessian.............:        0

Total number of variables............................:       21
                     variables with only lower bounds:        0
                variables with lower and upper bounds:       12
                     variables with only upper bounds:        0
Total number of equality constraints.................:       19
Total number of inequality constraints...............:       18
        inequality constraints with only lower bounds:        9
   inequality constraints with lower and upper bounds:        0
        inequality constraints with only upper bounds:        9

iter    objective    inf_pr   inf_du lg(mu)  ||d||  lg(rg) alpha_du alpha_pr  ls
   0  8.2499992e+01 1.00e+00 1.37e+01  -1.0 0.00e+00    -  0.00e+00 0.00e+00   0
   1  5.6472116e+02 2.22e-16 1.02e+02  -1.0 1.24e+00    -  9.53e-03 1.00e+00h  1
   2  4.3197601e+02 2.22e-16 9.92e+01  -1.0 2.21e+01    -  8.50e-02 2.23e-02f  1
   3  3.4005502e+02 4.44e-16 8.72e+01  -1.0 7.46e+00    -  2.24e-01 1.02e-01f  1
   4  3.3966042e+02 4.44e-16 8.71e+01  -1.0 8.92e-02    -  1.00e+00 4.24e-02f  2
   5  3.3983167e+02 8.88e-16 1.00e-06  -1.0 7.41e-04    -  1.00e+00 1.00e+00f  1
   6  3.3901503e+02 8.88e-16 2.83e-08  -2.5 4.75e-03    -  1.00e+00 1.00e+00f  1
   7  3.3900122e+02 1.11e-16 1.50e-09  -3.8 7.20e-05    -  1.00e+00 1.00e+00f  1
   8  3.3900001e+02 4.44e-16 1.84e-11  -5.7 7.06e-06    -  1.00e+00 1.00e+00f  1
   9  3.3900000e+02 2.22e-16 2.51e-14  -8.6 8.80e-08    -  1.00e+00 1.00e+00f  1

Number of Iterations....: 9

                                   (scaled)                 (unscaled)
Objective...............:   8.2682925809889127e+01    3.3899999582054539e+02
Dual infeasibility......:   2.5059035640133008e-14    1.0274204612454532e-13
Constraint violation....:   2.2204460492503131e-16    2.2204460492503131e-16
Complementarity.........:   2.5067164702425174e-09    1.0277537527994321e-08
Overall NLP error.......:   2.5067164702425174e-09    1.0277537527994321e-08


Number of objective function evaluations             = 12
Number of objective gradient evaluations             = 10
Number of equality constraint evaluations            = 12
Number of inequality constraint evaluations          = 12
Number of equality constraint Jacobian evaluations   = 1
Number of inequality constraint Jacobian evaluations = 1
Number of Lagrangian Hessian evaluations             = 1
Total CPU secs in IPOPT (w/o function evaluations)   =      0.236
Total CPU secs in NLP function evaluations           =      0.213

EXIT: Optimal Solution Found.
cases/matpower/case9.m
ipopt
DCP
Time to Solution........:1.1250760555267334
